% Data file generated from RandomInstances/24_0.65_3.col DIMACS file
size = 24;

chi = 8;

adjacency = [|0,1,1,0,0,1,1,1,0,1,1,1,0,1,0,1,1,0,1,0,0,0,0,0,
|1,0,0,1,1,0,1,1,0,1,0,1,1,1,1,1,0,1,1,1,1,1,1,0,
|1,0,0,1,0,0,0,1,0,1,1,1,0,0,1,0,1,0,1,0,1,1,0,1,
|0,1,1,0,1,1,1,0,1,0,1,1,1,1,1,1,1,1,0,0,0,0,1,0,
|0,1,0,1,0,1,1,0,1,1,1,1,0,1,1,0,1,0,1,1,1,1,1,1,
|1,0,0,1,1,0,1,1,0,1,0,1,1,1,1,0,1,1,1,1,1,1,1,0,
|1,1,0,1,1,1,0,1,0,1,1,0,0,0,1,1,1,1,1,1,0,1,1,1,
|1,1,1,0,0,1,1,0,0,0,1,0,1,1,1,0,0,1,0,0,1,1,0,1,
|0,0,0,1,1,0,0,0,0,1,1,1,1,1,1,1,0,0,1,1,1,1,1,0,
|1,1,1,0,1,1,1,0,1,0,1,1,1,1,1,0,1,0,1,1,0,0,0,1,
|1,0,1,1,1,0,1,1,1,1,0,0,0,1,1,1,1,0,1,1,0,0,1,1,
|1,1,1,1,1,1,0,0,1,1,0,0,1,0,0,1,0,1,1,0,1,0,1,1,
|0,1,0,1,0,1,0,1,1,1,0,1,0,0,0,0,1,1,1,1,1,1,0,0,
|1,1,0,1,1,1,0,1,1,1,1,0,0,0,1,1,1,1,1,1,0,0,1,0,
|0,1,1,1,1,1,1,1,1,1,1,0,0,1,0,1,1,1,1,0,1,0,1,1,
|1,1,0,1,0,0,1,0,1,0,1,1,0,1,1,0,1,1,1,1,0,0,1,1,
|1,0,1,1,1,1,1,0,0,1,1,0,1,1,1,1,0,1,1,1,1,1,0,0,
|0,1,0,1,0,1,1,1,0,0,0,1,1,1,1,1,1,0,1,1,1,1,1,1,
|1,1,1,0,1,1,1,0,1,1,1,1,1,1,1,1,1,1,0,0,0,1,1,1,
|0,1,0,0,1,1,1,0,1,1,1,0,1,1,0,1,1,1,0,0,1,0,1,1,
|0,1,1,0,1,1,0,1,1,0,0,1,1,0,1,0,1,1,0,1,0,1,0,1,
|0,1,1,0,1,1,1,1,1,0,0,0,1,0,0,0,1,1,1,0,1,0,0,1,
|0,1,0,1,1,1,1,0,1,0,1,1,0,1,1,1,0,1,1,1,0,0,0,1,
|0,0,1,0,1,0,1,1,0,1,1,1,0,0,1,1,0,1,1,1,1,1,1,0,
|];